\ This file has been generated by DOcplex
\ ENCODING=ISO-8859-1
\Problem name: random_problem.lp

Minimize
 obj: 568 x0 + 284 x1 + 142 x2 - 180 x3 - 90 x4 - 45 x5 + 84 x6 + 42 x7 + 21 x8
      - 1232 x9 - 616 x10 - 308 x11 - 508 x12 - 254 x13 - 127 x14 + 356 x15
      + 178 x16 + 89 x17 + [ 8832 x0^2 + 8832 x0*x1 + 4416 x0*x2 + 9728 x0*x3
      + 4864 x0*x4 + 2432 x0*x5 + 4864 x0*x6 + 2432 x0*x7 + 1216 x0*x8
      + 9216 x0*x9 + 4608 x0*x10 + 2304 x0*x11 + 4736 x0*x12 + 2368 x0*x13
      + 1184 x0*x14 + 14464 x0*x15 + 7232 x0*x16 + 3616 x0*x17 + 2208 x1^2
      + 2208 x1*x2 + 4864 x1*x3 + 2432 x1*x4 + 1216 x1*x5 + 2432 x1*x6
      + 1216 x1*x7 + 608 x1*x8 + 4608 x1*x9 + 2304 x1*x10 + 1152 x1*x11
      + 2368 x1*x12 + 1184 x1*x13 + 592 x1*x14 + 7232 x1*x15 + 3616 x1*x16
      + 1808 x1*x17 + 552 x2^2 + 2432 x2*x3 + 1216 x2*x4 + 608 x2*x5
      + 1216 x2*x6 + 608 x2*x7 + 304 x2*x8 + 2304 x2*x9 + 1152 x2*x10
      + 576 x2*x11 + 1184 x2*x12 + 592 x2*x13 + 296 x2*x14 + 3616 x2*x15
      + 1808 x2*x16 + 904 x2*x17 + 5312 x3^2 + 5312 x3*x4 + 2656 x3*x5
      + 6144 x3*x6 + 3072 x3*x7 + 1536 x3*x8 + 6784 x3*x9 + 3392 x3*x10
      + 1696 x3*x11 + 3328 x3*x12 + 1664 x3*x13 + 832 x3*x14 + 7680 x3*x15
      + 3840 x3*x16 + 1920 x3*x17 + 1328 x4^2 + 1328 x4*x5 + 3072 x4*x6
      + 1536 x4*x7 + 768 x4*x8 + 3392 x4*x9 + 1696 x4*x10 + 848 x4*x11
      + 1664 x4*x12 + 832 x4*x13 + 416 x4*x14 + 3840 x4*x15 + 1920 x4*x16
      + 960 x4*x17 + 332 x5^2 + 1536 x5*x6 + 768 x5*x7 + 384 x5*x8 + 1696 x5*x9
      + 848 x5*x10 + 424 x5*x11 + 832 x5*x12 + 416 x5*x13 + 208 x5*x14
      + 1920 x5*x15 + 960 x5*x16 + 480 x5*x17 + 9152 x6^2 + 9152 x6*x7
      + 4576 x6*x8 + 3584 x6*x9 + 1792 x6*x10 + 896 x6*x11 + 1664 x6*x12
      + 832 x6*x13 + 416 x6*x14 + 3584 x6*x15 + 1792 x6*x16 + 896 x6*x17
      + 2288 x7^2 + 2288 x7*x8 + 1792 x7*x9 + 896 x7*x10 + 448 x7*x11
      + 832 x7*x12 + 416 x7*x13 + 208 x7*x14 + 1792 x7*x15 + 896 x7*x16
      + 448 x7*x17 + 572 x8^2 + 896 x8*x9 + 448 x8*x10 + 224 x8*x11 + 416 x8*x12
      + 208 x8*x13 + 104 x8*x14 + 896 x8*x15 + 448 x8*x16 + 224 x8*x17
      + 7936 x9^2 + 7936 x9*x10 + 3968 x9*x11 + 4864 x9*x12 + 2432 x9*x13
      + 1216 x9*x14 + 8832 x9*x15 + 4416 x9*x16 + 2208 x9*x17 + 1984 x10^2
      + 1984 x10*x11 + 2432 x10*x12 + 1216 x10*x13 + 608 x10*x14 + 4416 x10*x15
      + 2208 x10*x16 + 1104 x10*x17 + 496 x11^2 + 1216 x11*x12 + 608 x11*x13
      + 304 x11*x14 + 2208 x11*x15 + 1104 x11*x16 + 552 x11*x17 + 1408 x12^2
      + 1408 x12*x13 + 704 x12*x14 + 3840 x12*x15 + 1920 x12*x16 + 960 x12*x17
      + 352 x13^2 + 352 x13*x14 + 1920 x13*x15 + 960 x13*x16 + 480 x13*x17
      + 88 x14^2 + 960 x14*x15 + 480 x14*x16 + 240 x14*x17 + 8512 x15^2
      + 8512 x15*x16 + 4256 x15*x17 + 2128 x16^2 + 2128 x16*x17 + 532 x17^2 ]/2
Subject To
 c0: 4 x0 + 2 x1 + x2 + 4 x3 + 2 x4 + x5 + 4 x6 + 2 x7 + x8 + 4 x9 + 2 x10 + x11
     + 4 x12 + 2 x13 + x14 + 4 x15 + 2 x16 + x17 = 7

Bounds
 0 <= x0 <= 1
 0 <= x1 <= 1
 0 <= x2 <= 1
 0 <= x3 <= 1
 0 <= x4 <= 1
 0 <= x5 <= 1
 0 <= x6 <= 1
 0 <= x7 <= 1
 0 <= x8 <= 1
 0 <= x9 <= 1
 0 <= x10 <= 1
 0 <= x11 <= 1
 0 <= x12 <= 1
 0 <= x13 <= 1
 0 <= x14 <= 1
 0 <= x15 <= 1
 0 <= x16 <= 1
 0 <= x17 <= 1

Binaries
 x0 x1 x2 x3 x4 x5 x6 x7 x8 x9 x10 x11 x12 x13 x14 x15 x16 x17
End
